analyze/results_flowersnark/final_miplib_symretope_if_extended_generating_set_cpx_v802__settings_final_nosym_norestarts__4__square37.mps.gz.sol
solution status: optimal solution found
objective value:                                   15
x_1_1_17                                            1 	(obj:1)
x_1_18_20                                           1 	(obj:1)
x_18_1_11                                           1 	(obj:1)
x_18_12_6                                           1 	(obj:1)
x_21_18_3                                           1 	(obj:1)
x_21_21_17                                          1 	(obj:1)
x_24_12_5                                           1 	(obj:1)
x_24_17_4                                           1 	(obj:1)
x_28_17_4                                           1 	(obj:1)
x_29_1_9                                            1 	(obj:1)
x_29_10_4                                           1 	(obj:1)
x_29_14_3                                           1 	(obj:1)
x_32_14_1                                           1 	(obj:1)
x_32_15_6                                           1 	(obj:1)
x_33_10_5                                           1 	(obj:1)
y_20                                                1 	(obj:0)
y_17                                                2 	(obj:0)
y_11                                                1 	(obj:0)
y_9                                                 1 	(obj:0)
y_6                                                 2 	(obj:0)
y_5                                                 2 	(obj:0)
y_4                                                 3 	(obj:0)
y_3                                                 2 	(obj:0)
y_1                                                 1 	(obj:0)
