analyze/results_flowersnark/final_miplib_symretope_if_extended_generating_set_cpx_v802__settings_final_nosym_norestarts__4__square37.mps.gz.out
FILENAME:   /home/mcs001/s132664/testsets/IP/miplib2017/square37.mps.gz
SETTINGS:   settings_final_nosym_norestarts
TIMELIMIT:  7200
OUTPUTNAME: final_miplib_symretope_if_extended_generating_set_cpx_v802__settings_final_nosym_norestarts__4__
BINNAME:    bin/sbcs.linux.x86_64.gnu.opt.cpx
BASENAME:   square37.mps.gz
SEED:       4
@01 /home/mcs001/s132664/testsets/IP/miplib2017/square37.mps.gz ===========
@02 square37.mps.gz
@03 1686664948
SCIP version 8.0.2 [precision: 8 byte] [memory: block] [mode: optimized] [LP solver: CPLEX 20.1.0.0] [GitHash: 5f0473c]
Copyright (C) 2002-2022 Konrad-Zuse-Zentrum fuer Informationstechnik Berlin (ZIB)

Symretope propagation methods - (c) Jasper van Doornmalen, Christopher Hojny.
[GitHash: 2fd0484]

reading parameter file <../settings/settings_final_nosym_norestarts.set> ...

Changed settings:
limits/time = 7200
limits/restarts = 0
misc/usesymmetry = 0
randomization/randomseedshift = 4
constraints/orbisack/sepafreq = -1
constraints/symresack/sepafreq = -1
propagating/symmetry/detectsubgroups = FALSE
propagating/symmetry/usesymretopes = FALSE
propagating/symmetry/relabelsymretopes = 0
propagating/symmetry/ofsymcomptiming = 0
constraints/symretope/sepafreq = -1
constraints/symretope/peek = FALSE


solving problem ...

original problem has 49320 variables (49284 bin, 36 int, 0 impl, 0 cont) and 33150 constraints
presolving:
(round 1, fast)       31710 del vars, 31710 del conss, 0 add conss, 31746 chg bounds, 0 chg sides, 0 chg coeffs, 0 upgd conss, 0 impls, 1369 clqs
(round 2, exhaustive) 31710 del vars, 31710 del conss, 0 add conss, 31746 chg bounds, 0 chg sides, 0 chg coeffs, 1369 upgd conss, 0 impls, 1369 clqs
(round 3, exhaustive) 31710 del vars, 31734 del conss, 0 add conss, 31746 chg bounds, 24 chg sides, 0 chg coeffs, 1369 upgd conss, 0 impls, 1369 clqs
   (41.8s) probing: 1000/17574 (5.7%) - 0 fixings, 0 aggregations, 26668 implications, 0 bound changes
   (41.9s) probing: 1001/17574 (5.7%) - 0 fixings, 0 aggregations, 26684 implications, 0 bound changes
   (41.9s) probing aborted: 1000/1000 successive useless probings
presolving (4 rounds: 4 fast, 3 medium, 3 exhaustive):
 31710 deleted vars, 31734 deleted constraints, 0 added constraints, 31746 tightened bounds, 0 added holes, 24 changed sides, 0 changed coefficients
 26577 implications, 1476 cliques
presolved problem has 17610 variables (17574 bin, 36 int, 0 impl, 0 cont) and 1416 constraints
   1369 constraints of type <setppc>
     47 constraints of type <linear>
transformed objective value is always integral (scale: 1)
Presolving Time: 40.88

 time | node  | left  |LP iter|LP it/n|mem/heur|mdpt |vars |cons |rows |cuts |sepa|confs|strbr|  dualbound   | primalbound  |  gap   | compl. 
p45.6s|     1 |     0 |     0 |     - |  clique|   0 |  17k|1416 |1416 |   0 |  0 |   0 |   0 | 4.000000e+00 | 4.000000e+01 | 900.00%| unknown
  104s|     1 |     0 |  2099 |     - |  3189M |   0 |  17k|1430 |1416 |   0 |  0 |  29 |   0 | 8.666667e+00 | 4.000000e+01 | 361.54%| unknown
  472s|     1 |     2 | 23116 |     - |  3194M |   0 |  17k|1428 |1416 |   0 |  2 |  29 |  51 | 8.784532e+00 | 4.000000e+01 | 355.35%| unknown
* 532s|     4 |     3 | 29426 |9117.3 |strongbr|   3 |  17k|1416 |1416 |   0 |  1 |  29 |  98 | 8.784532e+00 | 1.600000e+01 |  82.14%| unknown
* 616s|    19 |     7 | 49991 |2662.1 |    LP  |   8 |  17k|1420 |1416 |   0 |  2 |  61 | 217 | 8.784532e+00 | 1.500000e+01 |  70.75%|  13.68%
 1062s|   100 |    46 |219206 |2193.3 |  3232M |  17 |  17k|1496 |1416 |   0 |  2 | 174 | 303 | 9.033439e+00 | 1.500000e+01 |  66.05%|  23.83%
 1599s|   200 |    82 |443129 |2216.4 |  3264M |  32 |  17k|1488 |1416 |   0 |  2 | 278 | 427 | 1.013570e+01 | 1.500000e+01 |  47.99%|  32.64%
 1936s|   300 |    92 |598953 |1996.3 |  3271M |  49 |  17k|1492 |1416 |   0 |  2 | 298 | 516 | 1.057091e+01 | 1.500000e+01 |  41.90%|  35.47%
 2107s|   400 |   102 |707771 |1768.7 |  3283M |  51 |  17k|1531 |1416 |   0 |  2 | 366 | 576 | 1.057091e+01 | 1.500000e+01 |  41.90%|  36.33%
 2280s|   500 |   106 |821942 |1643.0 |  3294M |  54 |  17k|1552 |1416 |   0 |  1 | 444 | 660 | 1.079758e+01 | 1.500000e+01 |  38.92%|  38.42%
 2493s|   600 |   110 |939471 |1564.9 |  3299M |  60 |  17k|1538 |1416 |   0 |  2 | 476 | 734 | 1.104603e+01 | 1.500000e+01 |  35.80%|  40.44%
 2636s|   700 |   114 |  1046k|1494.6 |  3310M |  60 |  17k|1555 |1416 |   0 |  0 | 550 | 812 | 1.126811e+01 | 1.500000e+01 |  33.12%|  50.09%
 2777s|   800 |   118 |  1144k|1429.7 |  3313M |  72 |  17k|1553 |1416 |   0 |  0 | 576 | 871 | 1.138950e+01 | 1.500000e+01 |  31.70%|  53.24%
 2905s|   900 |   118 |  1241k|1379.0 |  3324M |  75 |  17k|1573 |1416 |   0 |  0 | 625 | 942 | 1.138950e+01 | 1.500000e+01 |  31.70%|  53.98%
 3013s|  1000 |   124 |  1320k|1320.0 |  3330M |  78 |  17k|1594 |1416 |   0 |  2 | 682 | 995 | 1.157533e+01 | 1.500000e+01 |  29.59%|  54.65%
 time | node  | left  |LP iter|LP it/n|mem/heur|mdpt |vars |cons |rows |cuts |sepa|confs|strbr|  dualbound   | primalbound  |  gap   | compl. 
 3131s|  1100 |   122 |  1413k|1284.7 |  3333M |  83 |  17k|1585 |1416 |   0 |  0 | 695 |1052 | 1.160926e+01 | 1.500000e+01 |  29.21%|  55.95%
 3232s|  1200 |   122 |  1508k|1256.1 |  3338M |  87 |  17k|1650 |1416 |   0 |  2 | 780 |1107 | 1.197998e+01 | 1.500000e+01 |  25.21%|  62.03%
 3392s|  1300 |   122 |  1671k|1285.1 |  3349M |  95 |  17k|1720 |1416 |   0 |  0 | 880 |1170 | 1.200288e+01 | 1.500000e+01 |  24.97%|  63.94%
 3491s|  1400 |   112 |  1748k|1248.3 |  3363M | 101 |  17k|1802 |1416 |   0 |  2 |1043 |1262 | 1.200288e+01 | 1.500000e+01 |  24.97%|  63.95%
 3579s|  1500 |   102 |  1822k|1214.5 |  3382M | 102 |  17k|1953 |1416 |   0 |  0 |1296 |1378 | 1.200288e+01 | 1.500000e+01 |  24.97%|  64.11%
 3668s|  1600 |    92 |  1890k|1180.8 |  3399M | 112 |  17k|2086 |1416 |   0 |  0 |1577 |1481 | 1.214406e+01 | 1.500000e+01 |  23.52%|  65.75%
 3752s|  1700 |    80 |  1966k|1156.0 |  3410M | 112 |  17k|2115 |1416 |   0 |  0 |1719 |1558 | 1.255332e+01 | 1.500000e+01 |  19.49%|  67.41%
 3852s|  1800 |    60 |  2044k|1135.3 |  3435M | 112 |  17k|2155 |1416 |   0 |  0 |1993 |1695 | 1.264317e+01 | 1.500000e+01 |  18.64%|  77.42%

SCIP Status        : problem is solved [optimal solution found]
Solving Time (sec) : 3934.75
Solving Nodes      : 1876
Primal Bound       : +1.50000000000000e+01 (3 solutions)
Dual Bound         : +1.50000000000000e+01
Gap                : 0.00 %
SCIP Status        : problem is solved [optimal solution found]
Total Time         :    3940.14
  solving          :    3934.75
  presolving       :      40.88 (included in solving)
  reading          :       5.39
  copying          :       3.07 (13 #copies) (minimal 0.22, maximal 0.25, average 0.24)
Original Problem   :
  Problem name     : square37
  Variables        : 49320 (49284 binary, 36 integer, 0 implicit integer, 0 continuous)
  Constraints      : 33150 initial, 33150 maximal
  Objective        : minimize, 49284 non-zeros (abs.min = 1, abs.max = 1)
Presolved Problem  :
  Problem name     : t_square37
  Variables        : 17610 (17574 binary, 36 integer, 0 implicit integer, 0 continuous)
  Constraints      : 1416 initial, 2242 maximal
  Objective        : minimize, 17430 non-zeros (abs.min = 1, abs.max = 1)
  Nonzeros         : 2657755 constraint, 2034814 clique table
Presolvers         :   ExecTime  SetupTime  Calls  FixedVars   AggrVars   ChgTypes  ChgBounds   AddHoles    DelCons    AddCons   ChgSides   ChgCoefs
  boundshift       :       0.00       0.00      0          0          0          0          0          0          0          0          0          0
  convertinttobin  :       0.00       0.00      0          0          0          0          0          0          0          0          0          0
  domcol           :       0.46       0.00      1          0          0          0          0          0          0          0          0          0
  dualagg          :       0.00       0.00      0          0          0          0          0          0          0          0          0          0
  dualcomp         :       0.00       0.00      0          0          0          0          0          0          0          0          0          0
  dualinfer        :       0.00       0.00      0          0          0          0          0          0          0          0          0          0
  dualsparsify     :       2.23       0.00      1          0          0          0          0          0          0          0          0          0
  gateextraction   :       0.00       0.00      0          0          0          0          0          0          0          0          0          0
  implics          :       0.00       0.00      3          0          0          0          0          0          0          0          0          0
  inttobinary      :       0.00       0.00      4          0          0          0          0          0          0          0          0          0
  qpkktref         :       0.00       0.00      0          0          0          0          0          0          0          0          0          0
  redvub           :       0.00       0.00      0          0          0          0          0          0          0          0          0          0
  sparsify         :       1.24       0.00      1          0          0          0          0          0          0          0          0          0
  stuffing         :       0.00       0.00      0          0          0          0          0          0          0          0          0          0
  trivial          :       0.01       0.00      4          0          0          0          0          0          0          0          0          0
  tworowbnd        :       0.00       0.00      0          0          0          0          0          0          0          0          0          0
  dualfix          :       0.01       0.00      4          0          0          0          0          0          0          0          0          0
  genvbounds       :       0.00       0.00      0          0          0          0          0          0          0          0          0          0
  probing          :      21.56       0.00      1          0          0          0          0          0          0          0          0          0
  pseudoobj        :       0.00       0.00      0          0          0          0          0          0          0          0          0          0
  symmetry         :       0.00       0.00      0          0          0          0          0          0          0          0          0          0
  vbounds          :       0.05       0.00      1          0          0          0          0          0          0          0          0          0
  knapsack         :       0.00       0.00      0          0          0          0          0          0          0          0          0          0
  setppc           :       0.78       0.02      6          0          0          0          0          0          0          0          0          0
  linear           :      13.25       2.41      7      31710          0          0      31746          0      31734          0         24          0
  logicor          :       0.00       0.00      0          0          0          0          0          0          0          0          0          0
  bounddisjunction :       0.00       0.00      0          0          0          0          0          0          0          0          0          0
  benders          :       0.00       0.00      0          0          0          0          0          0          0          0          0          0
  components       :       0.44       0.00      1          0          0          0          0          0          0          0          0          0
  root node        :          -          -      -       2133          -          -       2170          -          -          -          -          -
Constraints        :     Number  MaxNumber  #Separate #Propagate    #EnfoLP    #EnfoRelax  #EnfoPS    #Check   #ResProp    Cutoffs    DomReds       Cuts    Applied      Conss   Children
  benderslp        :          0          0          0          0       1157          0          0         69          0          0          0          0          0          0          0
  integral         :          0          0          0          0       1157          0          0         69          0          0        858          0          0       1673       1876
  knapsack         :          0+        12          0       4719          0          0          0          0        199          0        271          0          0          0          0
  setppc           :       1369+      1391          1      21160          1          0          0         63     886019        152    1078724          0          0          0          0
  linear           :         47+        49          1      21008          1          0          0          6     148221         40      32591          0          0          0          0
  logicor          :          0+        80          1       2438          0          0          0          0         81          0         21          0          0          0          0
  bounddisjunction :          0+       738          0       3809          0          0          0          0        919         10         21          0          0          0          0
  benders          :          0          0          0          0          1          0          0          7          0          0          0          0          0          0          0
  countsols        :          0          0          0          0          1          0          0          7          0          0          0          0          0          0          0
  components       :          0          0          0          0          0          0          0          0          0          0          0          0          0          0          0
Constraint Timings :  TotalTime  SetupTime   Separate  Propagate     EnfoLP     EnfoPS     EnfoRelax   Check    ResProp    SB-Prop
  benderslp        :       0.00       0.00       0.00       0.00       0.00       0.00       0.00       0.00       0.00       0.00
  integral         :    1436.93       0.00       0.00       0.00    1436.90       0.00       0.00       0.03       0.00       0.00
  knapsack         :       0.02       0.00       0.00       0.01       0.00       0.00       0.00       0.00       0.00       0.01
  setppc           :      20.92       0.02       0.20       6.73       0.00       0.00       0.00       0.15       2.98      10.83
  linear           :       9.25       2.41       0.01       4.34       0.00       0.00       0.00       0.01       1.50       0.99
  logicor          :       0.05       0.00       0.00       0.02       0.00       0.00       0.00       0.00       0.02       0.01
  bounddisjunction :       0.45       0.00       0.00       0.18       0.00       0.00       0.00       0.00       0.12       0.15
  benders          :       0.00       0.00       0.00       0.00       0.00       0.00       0.00       0.00       0.00       0.00
  countsols        :       0.00       0.00       0.00       0.00       0.00       0.00       0.00       0.00       0.00       0.00
  components       :       0.00       0.00       0.00       0.00       0.00       0.00       0.00       0.00       0.00       0.00
Propagators        : #Propagate   #ResProp    Cutoffs    DomReds
  dualfix          :          3          0          0          0
  genvbounds       :          0          0          0          0
  nlobbt           :          0          0          0          0
  obbt             :          0          0          0          0
  probing          :          0          0          0          0
  pseudoobj        :       6939          0          0          0
  redcost          :       4441          0          0    1054527
  rootredcost      :          3          0          0        947
  symmetry         :          0          0          0          0
  vbounds          :       8170          0          0          0
Propagator Timings :  TotalTime  SetupTime   Presolve  Propagate    ResProp    SB-Prop
  dualfix          :       0.01       0.00       0.01       0.00       0.00       0.00
  genvbounds       :       0.01       0.00       0.00       0.01       0.00       0.00
  nlobbt           :       0.00       0.00       0.00       0.00       0.00       0.00
  obbt             :       0.00       0.00       0.00       0.00       0.00       0.00
  probing          :      21.56       0.00      21.56       0.00       0.00       0.00
  pseudoobj        :       0.12       0.00       0.00       0.12       0.00       0.00
  redcost          :       6.94       0.00       0.00       6.94       0.00       0.00
  rootredcost      :       0.18       0.00       0.00       0.18       0.00       0.00
  symmetry         :       0.00       0.00       0.00       0.00       0.00       0.00
  vbounds          :       0.15       0.00       0.05       0.09       0.00       0.01
Conflict Analysis  :       Time      Calls    Success    DomReds  Conflicts   Literals    Reconvs ReconvLits   Dualrays   Nonzeros   LP Iters   (pool size: [10000,10000])
  propagation      :       1.56        189        177          -        829     2341.4          0        0.0          -          -          -
  infeasible LP    :       5.50        100         29          -         67     1817.3          0        0.0         26      244.7          0
  bound exceed. LP :     235.50        748        717          -       4078     1542.4         34      271.4         13        1.0      11790
  strong branching :       0.00          0          0          -          0        0.0          0        0.0          -          -          0
  pseudo solution  :       0.00          0          0          -          0        0.0          0        0.0          -          -          -
  applied globally :     110.53          -          -         24       2211      906.2          -          -         39          -          -
  applied locally  :          -          -          -          0        135     3459.7          -          -          0          -          -
Separators         :   ExecTime  SetupTime      Calls  RootCalls    Cutoffs    DomReds  FoundCuts ViaPoolAdd  DirectAdd    Applied ViaPoolApp  DirectApp      Conss
  cut pool         :       0.00          -          0          0          -          -          0          0          -          -          -          -          -    (maximal pool size:          0)
  aggregation      :       2.12       0.00         78          1          0          0          0          0          0          0          0          0          0
  > cmir           :          -          -          -          -          -          -          -          0          0          0          0          0          -
  > flowcover      :          -          -          -          -          -          -          -          0          0          0          0          0          -
  > knapsackcover  :          -          -          -          -          -          -          -          0          0          0          0          0          -
  cgmip            :       0.00       0.00          0          0          0          0          0          0          0          0          0          0          0
  clique           :      21.23       0.00          1          1          0          0          0          0          0          0          0          0          0
  closecuts        :       0.00       0.00          0          0          0          0          0          0          0          0          0          0          0
  convexproj       :       0.00       0.00          0          0          0          0          0          0          0          0          0          0          0
  disjunctive      :       0.00       0.00          0          0          0          0          0          0          0          0          0          0          0
  eccuts           :       0.00       0.00          0          0          0          0          0          0          0          0          0          0          0
  gauge            :       0.00       0.00          0          0          0          0          0          0          0          0          0          0          0
  gomory           :       5.99       0.00         78          1          0          0          0          0          0          0          0          0          0
  > gomorymi       :          -          -          -          -          -          -          -          0          0          0          0          0          -
  > strongcg       :          -          -          -          -          -          -          -          0          0          0          0          0          -
  impliedbounds    :       0.12       0.00         78          1          0          0          0          0          0          0          0          0          0
  interminor       :       0.00       0.00          0          0          0          0          0          0          0          0          0          0          0
  intobj           :       0.00       0.00          0          0          0          0          0          0          0          0          0          0          0
  mcf              :       0.02       0.00          1          1          0          0          0          0          0          0          0          0          0
  minor            :       0.00       0.00          0          0          0          0          0          0          0          0          0          0          0
  mixing           :       0.00       0.00         78          1          0          0          0          0          0          0          0          0          0
  oddcycle         :       0.00       0.00          0          0          0          0          0          0          0          0          0          0          0
  rapidlearning    :       0.02       0.00          0          0          0          0          0          0          0          0          0          0          0
  rlt              :       0.00       0.00          1          1          0          0          0          0          0          0          0          0          0
  zerohalf         :       0.74       0.00         78          1          0          0          0          0          0          0          0          0          0
Cutselectors       :   ExecTime  SetupTime      Calls  RootCalls   Selected     Forced   Filtered  RootSelec   RootForc   RootFilt 
  hybrid           :       0.00       0.00          0          0          0          0          0          0          0          0
Pricers            :   ExecTime  SetupTime      Calls       Vars
  problem variables:       0.00          -          0          0
Branching Rules    :   ExecTime  SetupTime   BranchLP  BranchExt   BranchPS    Cutoffs    DomReds       Cuts      Conss   Children
  allfullstrong    :       0.00       0.00          0          0          0          0          0          0          0          0
  cloud            :       0.00       0.00          0          0          0          0          0          0          0          0
  distribution     :       0.00       0.00          0          0          0          0          0          0          0          0
  fullstrong       :       0.00       0.00          0          0          0          0          0          0          0          0
  inference        :       0.00       0.00          0          0          0          0          0          0          0          0
  leastinf         :       0.00       0.00          0          0          0          0          0          0          0          0
  lookahead        :       0.00       0.00          0          0          0          0          0          0          0          0
  mostinf          :       0.00       0.00          0          0          0          0          0          0          0          0
  multaggr         :       0.00       0.00          0          0          0          0          0          0          0          0
  nodereopt        :       0.00       0.00          0          0          0          0          0          0          0          0
  pscost           :       0.00       0.00          0          0          0          0          0          0          0          0
  random           :       0.00       0.00          0          0          0          0          0          0          0          0
  relpscost        :    1436.90       0.00       1156          0          0          0        858          0       1956       1876
  vanillafullstrong:       0.00       0.00          0          0          0          0          0          0          0          0
Primal Heuristics  :   ExecTime  SetupTime      Calls      Found       Best
  LP solutions     :       0.00          -          -          1          1
  relax solutions  :       0.00          -          -          0          0
  pseudo solutions :       0.00          -          -          0          0
  strong branching :       0.01          -          -          1          1
  actconsdiving    :       0.00       0.00          0          0          0
  adaptivediving   :       8.97       0.00          4          0          0
  alns             :       4.54       0.00          5          0          0
  bound            :       0.00       0.00          0          0          0
  clique           :       0.94       0.00          1          1          1
  coefdiving       :       0.00       0.00          0          0          0
  completesol      :       0.00       0.00          0          0          0
  conflictdiving   :      59.31       0.00          2          0          0
  crossover        :       0.36       0.00          1          0          0
  dins             :       0.00       0.00          0          0          0
  distributiondivin:       4.36       0.00          2          0          0
  dps              :       0.00       0.00          0          0          0
  dualval          :       0.00       0.00          0          0          0
  farkasdiving     :       0.00       0.00          0          0          0
  feaspump         :     120.08       0.00          1          0          0
  fixandinfer      :       0.00       0.00          0          0          0
  fracdiving       :       6.74       0.00          2          0          0
  gins             :       0.57       0.00          0          0          0
  guideddiving     :       0.94       0.00          2          0          0
  indicator        :       0.00       0.00          0          0          0
  intdiving        :       0.00       0.00          0          0          0
  intshifting      :       0.00       0.00          0          0          0
  linesearchdiving :       2.69       0.00          2          0          0
  localbranching   :       0.00       0.00          0          0          0
  locks            :       0.35       0.00          1          0          0
  lpface           :       0.00       0.00          0          0          0
  mpec             :       0.00       0.00          0          0          0
  multistart       :       0.00       0.00          0          0          0
  mutation         :       0.00       0.00          0          0          0
  nlpdiving        :       0.00       0.00          0          0          0
  objpscostdiving  :      67.51       0.00          2          0          0
  octane           :       0.00       0.00          0          0          0
  ofins            :       0.00       0.00          0          0          0
  oneopt           :       0.18       0.00          3          0          0
  padm             :       0.00       0.00          0          0          0
  proximity        :       0.00       0.00          0          0          0
  pscostdiving     :       1.00       0.00          2          0          0
  randrounding     :       0.21       0.00         53          0          0
  rens             :       0.32       0.00          1          0          0
  reoptsols        :       0.00       0.00          0          0          0
  repair           :       0.00       0.00          0          0          0
  rins             :       2.39       0.00          6          0          0
  rootsoldiving    :       7.18       0.00          1          0          0
  rounding         :       4.03       0.00        440          0          0
  shiftandpropagate:       0.00       0.00          0          0          0
  shifting         :       6.94       0.00        104          0          0
  simplerounding   :       0.00       0.00          0          0          0
  subnlp           :       0.00       0.00          0          0          0
  trivial          :       0.10       0.00          2          0          0
  trivialnegation  :       0.00       0.00          0          0          0
  trustregion      :       0.00       0.00          0          0          0
  trysol           :       0.00       0.00          0          0          0
  twoopt           :       0.00       0.00          0          0          0
  undercover       :       0.00       0.00          0          0          0
  vbounds          :      51.23       0.00          1          0          0
  veclendiving     :       1.18       0.00          2          0          0
  zeroobj          :       0.00       0.00          0          0          0
  zirounding       :       0.26       0.00        938          0          0
  other solutions  :          -          -          -          0          -
LP                 :       Time      Calls Iterations  Iter/call   Iter/sec  Time-0-It Calls-0-It    ItLimit
  primal LP        :       0.00          0          0       0.00          -       0.00          0
  dual LP          :    1993.28       4190    1962411     958.21     984.51      20.99       2142
  lex dual LP      :       0.00          0          0       0.00          -
  barrier LP       :       0.00          0          0       0.00          -       0.00          0
  resolve instable :       0.00          0          0       0.00          -
  diving/probing LP:     268.59         81     134338    1658.49     500.15
  strong branching :    1204.21       1870    1116105     596.85     926.84          -          -       1840
    (at root node) :          -         51      39663     777.71          -
  conflict analysis:      83.91       1179      11790      10.00     140.51
B&B Tree           :
  number of runs   :          1
  nodes            :       1876 (938 internal, 938 leaves)
  feasible leaves  :          1
  infeas. leaves   :         85
  objective leaves :        852
  nodes (total)    :       1876 (938 internal, 938 leaves)
  nodes left       :          0
  max depth        :        118
  max depth (total):        118
  backtracks       :        287 (15.3%)
  early backtracks :          0 (0.0%)
  nodes exc. ref.  :          0 (0.0%)
  delayed cutoffs  :          0
  repropagations   :         97 (170 domain reductions, 0 cutoffs)
  avg switch length:       8.42
  switching time   :       8.90
Root Node          :
  First LP value   : +8.66666666666667e+00
  First LP Iters   :       2074 (311.77 Iter/sec)
  First LP Time    :       6.65
  Final Dual Bound : +8.78453175116549e+00
  Final Root Iters :       2074
  Root LP Estimate : +1.11168152996122e+01
Solution           :
  Solutions found  :          3 (3 improvements)
  First Solution   : +4.00000000000000e+01   (in run 1, after 1 nodes, 45.56 seconds, depth 6, found by <clique>)
  Gap First Sol.   :     900.00 %
  Gap Last Sol.    :      70.75 %
  Primal Bound     : +1.50000000000000e+01   (in run 1, after 19 nodes, 616.41 seconds, depth 8, found by <relaxation>)
  Dual Bound       : +1.50000000000000e+01
  Gap              :       0.00 %
Integrals          :      Total       Avg%
  primal-dual      :  142549.42      36.23
  primal-ref       :          -          - (not evaluated)
  dual-ref         :          -          - (not evaluated)
written solution information to file <results/final_miplib_symretope_if_extended_generating_set_cpx_v802__settings_final_nosym_norestarts__4__square37.mps.gz.sol>
@04 1686668892
